c *********************************
c * Circuit generated by BenCGen
c *
c * Parity_448
c *
c * Ports with 1 gate(s): 1
c * Ports with 2 gate(s): 448
c * Total gates: 449
c *********************************
p cnf 897 1793
1 451 0
-1 -451 0
1 -450 0
451 -450 0
-1 -451 450 0
1 2 -452 0
-1 2 452 0
1 -2 452 0
-1 -2 -452 0
3 4 -453 0
-3 4 453 0
3 -4 453 0
-3 -4 -453 0
5 6 -454 0
-5 6 454 0
5 -6 454 0
-5 -6 -454 0
7 8 -455 0
-7 8 455 0
7 -8 455 0
-7 -8 -455 0
9 10 -456 0
-9 10 456 0
9 -10 456 0
-9 -10 -456 0
11 12 -457 0
-11 12 457 0
11 -12 457 0
-11 -12 -457 0
13 14 -458 0
-13 14 458 0
13 -14 458 0
-13 -14 -458 0
15 16 -459 0
-15 16 459 0
15 -16 459 0
-15 -16 -459 0
17 18 -460 0
-17 18 460 0
17 -18 460 0
-17 -18 -460 0
19 20 -461 0
-19 20 461 0
19 -20 461 0
-19 -20 -461 0
21 22 -462 0
-21 22 462 0
21 -22 462 0
-21 -22 -462 0
23 24 -463 0
-23 24 463 0
23 -24 463 0
-23 -24 -463 0
25 26 -464 0
-25 26 464 0
25 -26 464 0
-25 -26 -464 0
27 28 -465 0
-27 28 465 0
27 -28 465 0
-27 -28 -465 0
29 30 -466 0
-29 30 466 0
29 -30 466 0
-29 -30 -466 0
31 32 -467 0
-31 32 467 0
31 -32 467 0
-31 -32 -467 0
33 34 -468 0
-33 34 468 0
33 -34 468 0
-33 -34 -468 0
35 36 -469 0
-35 36 469 0
35 -36 469 0
-35 -36 -469 0
37 38 -470 0
-37 38 470 0
37 -38 470 0
-37 -38 -470 0
39 40 -471 0
-39 40 471 0
39 -40 471 0
-39 -40 -471 0
41 42 -472 0
-41 42 472 0
41 -42 472 0
-41 -42 -472 0
43 44 -473 0
-43 44 473 0
43 -44 473 0
-43 -44 -473 0
45 46 -474 0
-45 46 474 0
45 -46 474 0
-45 -46 -474 0
47 48 -475 0
-47 48 475 0
47 -48 475 0
-47 -48 -475 0
49 50 -476 0
-49 50 476 0
49 -50 476 0
-49 -50 -476 0
51 52 -477 0
-51 52 477 0
51 -52 477 0
-51 -52 -477 0
53 54 -478 0
-53 54 478 0
53 -54 478 0
-53 -54 -478 0
55 56 -479 0
-55 56 479 0
55 -56 479 0
-55 -56 -479 0
57 58 -480 0
-57 58 480 0
57 -58 480 0
-57 -58 -480 0
59 60 -481 0
-59 60 481 0
59 -60 481 0
-59 -60 -481 0
61 62 -482 0
-61 62 482 0
61 -62 482 0
-61 -62 -482 0
63 64 -483 0
-63 64 483 0
63 -64 483 0
-63 -64 -483 0
65 66 -484 0
-65 66 484 0
65 -66 484 0
-65 -66 -484 0
67 68 -485 0
-67 68 485 0
67 -68 485 0
-67 -68 -485 0
69 70 -486 0
-69 70 486 0
69 -70 486 0
-69 -70 -486 0
71 72 -487 0
-71 72 487 0
71 -72 487 0
-71 -72 -487 0
73 74 -488 0
-73 74 488 0
73 -74 488 0
-73 -74 -488 0
75 76 -489 0
-75 76 489 0
75 -76 489 0
-75 -76 -489 0
77 78 -490 0
-77 78 490 0
77 -78 490 0
-77 -78 -490 0
79 80 -491 0
-79 80 491 0
79 -80 491 0
-79 -80 -491 0
81 82 -492 0
-81 82 492 0
81 -82 492 0
-81 -82 -492 0
83 84 -493 0
-83 84 493 0
83 -84 493 0
-83 -84 -493 0
85 86 -494 0
-85 86 494 0
85 -86 494 0
-85 -86 -494 0
87 88 -495 0
-87 88 495 0
87 -88 495 0
-87 -88 -495 0
89 90 -496 0
-89 90 496 0
89 -90 496 0
-89 -90 -496 0
91 92 -497 0
-91 92 497 0
91 -92 497 0
-91 -92 -497 0
93 94 -498 0
-93 94 498 0
93 -94 498 0
-93 -94 -498 0
95 96 -499 0
-95 96 499 0
95 -96 499 0
-95 -96 -499 0
97 98 -500 0
-97 98 500 0
97 -98 500 0
-97 -98 -500 0
99 100 -501 0
-99 100 501 0
99 -100 501 0
-99 -100 -501 0
101 102 -502 0
-101 102 502 0
101 -102 502 0
-101 -102 -502 0
103 104 -503 0
-103 104 503 0
103 -104 503 0
-103 -104 -503 0
105 106 -504 0
-105 106 504 0
105 -106 504 0
-105 -106 -504 0
107 108 -505 0
-107 108 505 0
107 -108 505 0
-107 -108 -505 0
109 110 -506 0
-109 110 506 0
109 -110 506 0
-109 -110 -506 0
111 112 -507 0
-111 112 507 0
111 -112 507 0
-111 -112 -507 0
113 114 -508 0
-113 114 508 0
113 -114 508 0
-113 -114 -508 0
115 116 -509 0
-115 116 509 0
115 -116 509 0
-115 -116 -509 0
117 118 -510 0
-117 118 510 0
117 -118 510 0
-117 -118 -510 0
119 120 -511 0
-119 120 511 0
119 -120 511 0
-119 -120 -511 0
121 122 -512 0
-121 122 512 0
121 -122 512 0
-121 -122 -512 0
123 124 -513 0
-123 124 513 0
123 -124 513 0
-123 -124 -513 0
125 126 -514 0
-125 126 514 0
125 -126 514 0
-125 -126 -514 0
127 128 -515 0
-127 128 515 0
127 -128 515 0
-127 -128 -515 0
129 130 -516 0
-129 130 516 0
129 -130 516 0
-129 -130 -516 0
131 132 -517 0
-131 132 517 0
131 -132 517 0
-131 -132 -517 0
133 134 -518 0
-133 134 518 0
133 -134 518 0
-133 -134 -518 0
135 136 -519 0
-135 136 519 0
135 -136 519 0
-135 -136 -519 0
137 138 -520 0
-137 138 520 0
137 -138 520 0
-137 -138 -520 0
139 140 -521 0
-139 140 521 0
139 -140 521 0
-139 -140 -521 0
141 142 -522 0
-141 142 522 0
141 -142 522 0
-141 -142 -522 0
143 144 -523 0
-143 144 523 0
143 -144 523 0
-143 -144 -523 0
145 146 -524 0
-145 146 524 0
145 -146 524 0
-145 -146 -524 0
147 148 -525 0
-147 148 525 0
147 -148 525 0
-147 -148 -525 0
149 150 -526 0
-149 150 526 0
149 -150 526 0
-149 -150 -526 0
151 152 -527 0
-151 152 527 0
151 -152 527 0
-151 -152 -527 0
153 154 -528 0
-153 154 528 0
153 -154 528 0
-153 -154 -528 0
155 156 -529 0
-155 156 529 0
155 -156 529 0
-155 -156 -529 0
157 158 -530 0
-157 158 530 0
157 -158 530 0
-157 -158 -530 0
159 160 -531 0
-159 160 531 0
159 -160 531 0
-159 -160 -531 0
161 162 -532 0
-161 162 532 0
161 -162 532 0
-161 -162 -532 0
163 164 -533 0
-163 164 533 0
163 -164 533 0
-163 -164 -533 0
165 166 -534 0
-165 166 534 0
165 -166 534 0
-165 -166 -534 0
167 168 -535 0
-167 168 535 0
167 -168 535 0
-167 -168 -535 0
169 170 -536 0
-169 170 536 0
169 -170 536 0
-169 -170 -536 0
171 172 -537 0
-171 172 537 0
171 -172 537 0
-171 -172 -537 0
173 174 -538 0
-173 174 538 0
173 -174 538 0
-173 -174 -538 0
175 176 -539 0
-175 176 539 0
175 -176 539 0
-175 -176 -539 0
177 178 -540 0
-177 178 540 0
177 -178 540 0
-177 -178 -540 0
179 180 -541 0
-179 180 541 0
179 -180 541 0
-179 -180 -541 0
181 182 -542 0
-181 182 542 0
181 -182 542 0
-181 -182 -542 0
183 184 -543 0
-183 184 543 0
183 -184 543 0
-183 -184 -543 0
185 186 -544 0
-185 186 544 0
185 -186 544 0
-185 -186 -544 0
187 188 -545 0
-187 188 545 0
187 -188 545 0
-187 -188 -545 0
189 190 -546 0
-189 190 546 0
189 -190 546 0
-189 -190 -546 0
191 192 -547 0
-191 192 547 0
191 -192 547 0
-191 -192 -547 0
193 194 -548 0
-193 194 548 0
193 -194 548 0
-193 -194 -548 0
195 196 -549 0
-195 196 549 0
195 -196 549 0
-195 -196 -549 0
197 198 -550 0
-197 198 550 0
197 -198 550 0
-197 -198 -550 0
199 200 -551 0
-199 200 551 0
199 -200 551 0
-199 -200 -551 0
201 202 -552 0
-201 202 552 0
201 -202 552 0
-201 -202 -552 0
203 204 -553 0
-203 204 553 0
203 -204 553 0
-203 -204 -553 0
205 206 -554 0
-205 206 554 0
205 -206 554 0
-205 -206 -554 0
207 208 -555 0
-207 208 555 0
207 -208 555 0
-207 -208 -555 0
209 210 -556 0
-209 210 556 0
209 -210 556 0
-209 -210 -556 0
211 212 -557 0
-211 212 557 0
211 -212 557 0
-211 -212 -557 0
213 214 -558 0
-213 214 558 0
213 -214 558 0
-213 -214 -558 0
215 216 -559 0
-215 216 559 0
215 -216 559 0
-215 -216 -559 0
217 218 -560 0
-217 218 560 0
217 -218 560 0
-217 -218 -560 0
219 220 -561 0
-219 220 561 0
219 -220 561 0
-219 -220 -561 0
221 222 -562 0
-221 222 562 0
221 -222 562 0
-221 -222 -562 0
223 224 -563 0
-223 224 563 0
223 -224 563 0
-223 -224 -563 0
225 226 -564 0
-225 226 564 0
225 -226 564 0
-225 -226 -564 0
227 228 -565 0
-227 228 565 0
227 -228 565 0
-227 -228 -565 0
229 230 -566 0
-229 230 566 0
229 -230 566 0
-229 -230 -566 0
231 232 -567 0
-231 232 567 0
231 -232 567 0
-231 -232 -567 0
233 234 -568 0
-233 234 568 0
233 -234 568 0
-233 -234 -568 0
235 236 -569 0
-235 236 569 0
235 -236 569 0
-235 -236 -569 0
237 238 -570 0
-237 238 570 0
237 -238 570 0
-237 -238 -570 0
239 240 -571 0
-239 240 571 0
239 -240 571 0
-239 -240 -571 0
241 242 -572 0
-241 242 572 0
241 -242 572 0
-241 -242 -572 0
243 244 -573 0
-243 244 573 0
243 -244 573 0
-243 -244 -573 0
245 246 -574 0
-245 246 574 0
245 -246 574 0
-245 -246 -574 0
247 248 -575 0
-247 248 575 0
247 -248 575 0
-247 -248 -575 0
249 250 -576 0
-249 250 576 0
249 -250 576 0
-249 -250 -576 0
251 252 -577 0
-251 252 577 0
251 -252 577 0
-251 -252 -577 0
253 254 -578 0
-253 254 578 0
253 -254 578 0
-253 -254 -578 0
255 256 -579 0
-255 256 579 0
255 -256 579 0
-255 -256 -579 0
257 258 -580 0
-257 258 580 0
257 -258 580 0
-257 -258 -580 0
259 260 -581 0
-259 260 581 0
259 -260 581 0
-259 -260 -581 0
261 262 -582 0
-261 262 582 0
261 -262 582 0
-261 -262 -582 0
263 264 -583 0
-263 264 583 0
263 -264 583 0
-263 -264 -583 0
265 266 -584 0
-265 266 584 0
265 -266 584 0
-265 -266 -584 0
267 268 -585 0
-267 268 585 0
267 -268 585 0
-267 -268 -585 0
269 270 -586 0
-269 270 586 0
269 -270 586 0
-269 -270 -586 0
271 272 -587 0
-271 272 587 0
271 -272 587 0
-271 -272 -587 0
273 274 -588 0
-273 274 588 0
273 -274 588 0
-273 -274 -588 0
275 276 -589 0
-275 276 589 0
275 -276 589 0
-275 -276 -589 0
277 278 -590 0
-277 278 590 0
277 -278 590 0
-277 -278 -590 0
279 280 -591 0
-279 280 591 0
279 -280 591 0
-279 -280 -591 0
281 282 -592 0
-281 282 592 0
281 -282 592 0
-281 -282 -592 0
283 284 -593 0
-283 284 593 0
283 -284 593 0
-283 -284 -593 0
285 286 -594 0
-285 286 594 0
285 -286 594 0
-285 -286 -594 0
287 288 -595 0
-287 288 595 0
287 -288 595 0
-287 -288 -595 0
289 290 -596 0
-289 290 596 0
289 -290 596 0
-289 -290 -596 0
291 292 -597 0
-291 292 597 0
291 -292 597 0
-291 -292 -597 0
293 294 -598 0
-293 294 598 0
293 -294 598 0
-293 -294 -598 0
295 296 -599 0
-295 296 599 0
295 -296 599 0
-295 -296 -599 0
297 298 -600 0
-297 298 600 0
297 -298 600 0
-297 -298 -600 0
299 300 -601 0
-299 300 601 0
299 -300 601 0
-299 -300 -601 0
301 302 -602 0
-301 302 602 0
301 -302 602 0
-301 -302 -602 0
303 304 -603 0
-303 304 603 0
303 -304 603 0
-303 -304 -603 0
305 306 -604 0
-305 306 604 0
305 -306 604 0
-305 -306 -604 0
307 308 -605 0
-307 308 605 0
307 -308 605 0
-307 -308 -605 0
309 310 -606 0
-309 310 606 0
309 -310 606 0
-309 -310 -606 0
311 312 -607 0
-311 312 607 0
311 -312 607 0
-311 -312 -607 0
313 314 -608 0
-313 314 608 0
313 -314 608 0
-313 -314 -608 0
315 316 -609 0
-315 316 609 0
315 -316 609 0
-315 -316 -609 0
317 318 -610 0
-317 318 610 0
317 -318 610 0
-317 -318 -610 0
319 320 -611 0
-319 320 611 0
319 -320 611 0
-319 -320 -611 0
321 322 -612 0
-321 322 612 0
321 -322 612 0
-321 -322 -612 0
323 324 -613 0
-323 324 613 0
323 -324 613 0
-323 -324 -613 0
325 326 -614 0
-325 326 614 0
325 -326 614 0
-325 -326 -614 0
327 328 -615 0
-327 328 615 0
327 -328 615 0
-327 -328 -615 0
329 330 -616 0
-329 330 616 0
329 -330 616 0
-329 -330 -616 0
331 332 -617 0
-331 332 617 0
331 -332 617 0
-331 -332 -617 0
333 334 -618 0
-333 334 618 0
333 -334 618 0
-333 -334 -618 0
335 336 -619 0
-335 336 619 0
335 -336 619 0
-335 -336 -619 0
337 338 -620 0
-337 338 620 0
337 -338 620 0
-337 -338 -620 0
339 340 -621 0
-339 340 621 0
339 -340 621 0
-339 -340 -621 0
341 342 -622 0
-341 342 622 0
341 -342 622 0
-341 -342 -622 0
343 344 -623 0
-343 344 623 0
343 -344 623 0
-343 -344 -623 0
345 346 -624 0
-345 346 624 0
345 -346 624 0
-345 -346 -624 0
347 348 -625 0
-347 348 625 0
347 -348 625 0
-347 -348 -625 0
349 350 -626 0
-349 350 626 0
349 -350 626 0
-349 -350 -626 0
351 352 -627 0
-351 352 627 0
351 -352 627 0
-351 -352 -627 0
353 354 -628 0
-353 354 628 0
353 -354 628 0
-353 -354 -628 0
355 356 -629 0
-355 356 629 0
355 -356 629 0
-355 -356 -629 0
357 358 -630 0
-357 358 630 0
357 -358 630 0
-357 -358 -630 0
359 360 -631 0
-359 360 631 0
359 -360 631 0
-359 -360 -631 0
361 362 -632 0
-361 362 632 0
361 -362 632 0
-361 -362 -632 0
363 364 -633 0
-363 364 633 0
363 -364 633 0
-363 -364 -633 0
365 366 -634 0
-365 366 634 0
365 -366 634 0
-365 -366 -634 0
367 368 -635 0
-367 368 635 0
367 -368 635 0
-367 -368 -635 0
369 370 -636 0
-369 370 636 0
369 -370 636 0
-369 -370 -636 0
371 372 -637 0
-371 372 637 0
371 -372 637 0
-371 -372 -637 0
373 374 -638 0
-373 374 638 0
373 -374 638 0
-373 -374 -638 0
375 376 -639 0
-375 376 639 0
375 -376 639 0
-375 -376 -639 0
377 378 -640 0
-377 378 640 0
377 -378 640 0
-377 -378 -640 0
379 380 -641 0
-379 380 641 0
379 -380 641 0
-379 -380 -641 0
381 382 -642 0
-381 382 642 0
381 -382 642 0
-381 -382 -642 0
383 384 -643 0
-383 384 643 0
383 -384 643 0
-383 -384 -643 0
385 386 -644 0
-385 386 644 0
385 -386 644 0
-385 -386 -644 0
387 388 -645 0
-387 388 645 0
387 -388 645 0
-387 -388 -645 0
389 390 -646 0
-389 390 646 0
389 -390 646 0
-389 -390 -646 0
391 392 -647 0
-391 392 647 0
391 -392 647 0
-391 -392 -647 0
393 394 -648 0
-393 394 648 0
393 -394 648 0
-393 -394 -648 0
395 396 -649 0
-395 396 649 0
395 -396 649 0
-395 -396 -649 0
397 398 -650 0
-397 398 650 0
397 -398 650 0
-397 -398 -650 0
399 400 -651 0
-399 400 651 0
399 -400 651 0
-399 -400 -651 0
401 402 -652 0
-401 402 652 0
401 -402 652 0
-401 -402 -652 0
403 404 -653 0
-403 404 653 0
403 -404 653 0
-403 -404 -653 0
405 406 -654 0
-405 406 654 0
405 -406 654 0
-405 -406 -654 0
407 408 -655 0
-407 408 655 0
407 -408 655 0
-407 -408 -655 0
409 410 -656 0
-409 410 656 0
409 -410 656 0
-409 -410 -656 0
411 412 -657 0
-411 412 657 0
411 -412 657 0
-411 -412 -657 0
413 414 -658 0
-413 414 658 0
413 -414 658 0
-413 -414 -658 0
415 416 -659 0
-415 416 659 0
415 -416 659 0
-415 -416 -659 0
417 418 -660 0
-417 418 660 0
417 -418 660 0
-417 -418 -660 0
419 420 -661 0
-419 420 661 0
419 -420 661 0
-419 -420 -661 0
421 422 -662 0
-421 422 662 0
421 -422 662 0
-421 -422 -662 0
423 424 -663 0
-423 424 663 0
423 -424 663 0
-423 -424 -663 0
425 426 -664 0
-425 426 664 0
425 -426 664 0
-425 -426 -664 0
427 428 -665 0
-427 428 665 0
427 -428 665 0
-427 -428 -665 0
429 430 -666 0
-429 430 666 0
429 -430 666 0
-429 -430 -666 0
431 432 -667 0
-431 432 667 0
431 -432 667 0
-431 -432 -667 0
433 434 -668 0
-433 434 668 0
433 -434 668 0
-433 -434 -668 0
435 436 -669 0
-435 436 669 0
435 -436 669 0
-435 -436 -669 0
437 438 -670 0
-437 438 670 0
437 -438 670 0
-437 -438 -670 0
439 440 -671 0
-439 440 671 0
439 -440 671 0
-439 -440 -671 0
441 442 -672 0
-441 442 672 0
441 -442 672 0
-441 -442 -672 0
443 444 -673 0
-443 444 673 0
443 -444 673 0
-443 -444 -673 0
445 446 -674 0
-445 446 674 0
445 -446 674 0
-445 -446 -674 0
447 448 -675 0
-447 448 675 0
447 -448 675 0
-447 -448 -675 0
452 453 -676 0
-452 453 676 0
452 -453 676 0
-452 -453 -676 0
454 455 -677 0
-454 455 677 0
454 -455 677 0
-454 -455 -677 0
456 457 -678 0
-456 457 678 0
456 -457 678 0
-456 -457 -678 0
458 459 -679 0
-458 459 679 0
458 -459 679 0
-458 -459 -679 0
460 461 -680 0
-460 461 680 0
460 -461 680 0
-460 -461 -680 0
462 463 -681 0
-462 463 681 0
462 -463 681 0
-462 -463 -681 0
464 465 -682 0
-464 465 682 0
464 -465 682 0
-464 -465 -682 0
466 467 -683 0
-466 467 683 0
466 -467 683 0
-466 -467 -683 0
468 469 -684 0
-468 469 684 0
468 -469 684 0
-468 -469 -684 0
470 471 -685 0
-470 471 685 0
470 -471 685 0
-470 -471 -685 0
472 473 -686 0
-472 473 686 0
472 -473 686 0
-472 -473 -686 0
474 475 -687 0
-474 475 687 0
474 -475 687 0
-474 -475 -687 0
476 477 -688 0
-476 477 688 0
476 -477 688 0
-476 -477 -688 0
478 479 -689 0
-478 479 689 0
478 -479 689 0
-478 -479 -689 0
480 481 -690 0
-480 481 690 0
480 -481 690 0
-480 -481 -690 0
482 483 -691 0
-482 483 691 0
482 -483 691 0
-482 -483 -691 0
484 485 -692 0
-484 485 692 0
484 -485 692 0
-484 -485 -692 0
486 487 -693 0
-486 487 693 0
486 -487 693 0
-486 -487 -693 0
488 489 -694 0
-488 489 694 0
488 -489 694 0
-488 -489 -694 0
490 491 -695 0
-490 491 695 0
490 -491 695 0
-490 -491 -695 0
492 493 -696 0
-492 493 696 0
492 -493 696 0
-492 -493 -696 0
494 495 -697 0
-494 495 697 0
494 -495 697 0
-494 -495 -697 0
496 497 -698 0
-496 497 698 0
496 -497 698 0
-496 -497 -698 0
498 499 -699 0
-498 499 699 0
498 -499 699 0
-498 -499 -699 0
500 501 -700 0
-500 501 700 0
500 -501 700 0
-500 -501 -700 0
502 503 -701 0
-502 503 701 0
502 -503 701 0
-502 -503 -701 0
504 505 -702 0
-504 505 702 0
504 -505 702 0
-504 -505 -702 0
506 507 -703 0
-506 507 703 0
506 -507 703 0
-506 -507 -703 0
508 509 -704 0
-508 509 704 0
508 -509 704 0
-508 -509 -704 0
510 511 -705 0
-510 511 705 0
510 -511 705 0
-510 -511 -705 0
512 513 -706 0
-512 513 706 0
512 -513 706 0
-512 -513 -706 0
514 515 -707 0
-514 515 707 0
514 -515 707 0
-514 -515 -707 0
516 517 -708 0
-516 517 708 0
516 -517 708 0
-516 -517 -708 0
518 519 -709 0
-518 519 709 0
518 -519 709 0
-518 -519 -709 0
520 521 -710 0
-520 521 710 0
520 -521 710 0
-520 -521 -710 0
522 523 -711 0
-522 523 711 0
522 -523 711 0
-522 -523 -711 0
524 525 -712 0
-524 525 712 0
524 -525 712 0
-524 -525 -712 0
526 527 -713 0
-526 527 713 0
526 -527 713 0
-526 -527 -713 0
528 529 -714 0
-528 529 714 0
528 -529 714 0
-528 -529 -714 0
530 531 -715 0
-530 531 715 0
530 -531 715 0
-530 -531 -715 0
532 533 -716 0
-532 533 716 0
532 -533 716 0
-532 -533 -716 0
534 535 -717 0
-534 535 717 0
534 -535 717 0
-534 -535 -717 0
536 537 -718 0
-536 537 718 0
536 -537 718 0
-536 -537 -718 0
538 539 -719 0
-538 539 719 0
538 -539 719 0
-538 -539 -719 0
540 541 -720 0
-540 541 720 0
540 -541 720 0
-540 -541 -720 0
542 543 -721 0
-542 543 721 0
542 -543 721 0
-542 -543 -721 0
544 545 -722 0
-544 545 722 0
544 -545 722 0
-544 -545 -722 0
546 547 -723 0
-546 547 723 0
546 -547 723 0
-546 -547 -723 0
548 549 -724 0
-548 549 724 0
548 -549 724 0
-548 -549 -724 0
550 551 -725 0
-550 551 725 0
550 -551 725 0
-550 -551 -725 0
552 553 -726 0
-552 553 726 0
552 -553 726 0
-552 -553 -726 0
554 555 -727 0
-554 555 727 0
554 -555 727 0
-554 -555 -727 0
556 557 -728 0
-556 557 728 0
556 -557 728 0
-556 -557 -728 0
558 559 -729 0
-558 559 729 0
558 -559 729 0
-558 -559 -729 0
560 561 -730 0
-560 561 730 0
560 -561 730 0
-560 -561 -730 0
562 563 -731 0
-562 563 731 0
562 -563 731 0
-562 -563 -731 0
564 565 -732 0
-564 565 732 0
564 -565 732 0
-564 -565 -732 0
566 567 -733 0
-566 567 733 0
566 -567 733 0
-566 -567 -733 0
568 569 -734 0
-568 569 734 0
568 -569 734 0
-568 -569 -734 0
570 571 -735 0
-570 571 735 0
570 -571 735 0
-570 -571 -735 0
572 573 -736 0
-572 573 736 0
572 -573 736 0
-572 -573 -736 0
574 575 -737 0
-574 575 737 0
574 -575 737 0
-574 -575 -737 0
576 577 -738 0
-576 577 738 0
576 -577 738 0
-576 -577 -738 0
578 579 -739 0
-578 579 739 0
578 -579 739 0
-578 -579 -739 0
580 581 -740 0
-580 581 740 0
580 -581 740 0
-580 -581 -740 0
582 583 -741 0
-582 583 741 0
582 -583 741 0
-582 -583 -741 0
584 585 -742 0
-584 585 742 0
584 -585 742 0
-584 -585 -742 0
586 587 -743 0
-586 587 743 0
586 -587 743 0
-586 -587 -743 0
588 589 -744 0
-588 589 744 0
588 -589 744 0
-588 -589 -744 0
590 591 -745 0
-590 591 745 0
590 -591 745 0
-590 -591 -745 0
592 593 -746 0
-592 593 746 0
592 -593 746 0
-592 -593 -746 0
594 595 -747 0
-594 595 747 0
594 -595 747 0
-594 -595 -747 0
596 597 -748 0
-596 597 748 0
596 -597 748 0
-596 -597 -748 0
598 599 -749 0
-598 599 749 0
598 -599 749 0
-598 -599 -749 0
600 601 -750 0
-600 601 750 0
600 -601 750 0
-600 -601 -750 0
602 603 -751 0
-602 603 751 0
602 -603 751 0
-602 -603 -751 0
604 605 -752 0
-604 605 752 0
604 -605 752 0
-604 -605 -752 0
606 607 -753 0
-606 607 753 0
606 -607 753 0
-606 -607 -753 0
608 609 -754 0
-608 609 754 0
608 -609 754 0
-608 -609 -754 0
610 611 -755 0
-610 611 755 0
610 -611 755 0
-610 -611 -755 0
612 613 -756 0
-612 613 756 0
612 -613 756 0
-612 -613 -756 0
614 615 -757 0
-614 615 757 0
614 -615 757 0
-614 -615 -757 0
616 617 -758 0
-616 617 758 0
616 -617 758 0
-616 -617 -758 0
618 619 -759 0
-618 619 759 0
618 -619 759 0
-618 -619 -759 0
620 621 -760 0
-620 621 760 0
620 -621 760 0
-620 -621 -760 0
622 623 -761 0
-622 623 761 0
622 -623 761 0
-622 -623 -761 0
624 625 -762 0
-624 625 762 0
624 -625 762 0
-624 -625 -762 0
626 627 -763 0
-626 627 763 0
626 -627 763 0
-626 -627 -763 0
628 629 -764 0
-628 629 764 0
628 -629 764 0
-628 -629 -764 0
630 631 -765 0
-630 631 765 0
630 -631 765 0
-630 -631 -765 0
632 633 -766 0
-632 633 766 0
632 -633 766 0
-632 -633 -766 0
634 635 -767 0
-634 635 767 0
634 -635 767 0
-634 -635 -767 0
636 637 -768 0
-636 637 768 0
636 -637 768 0
-636 -637 -768 0
638 639 -769 0
-638 639 769 0
638 -639 769 0
-638 -639 -769 0
640 641 -770 0
-640 641 770 0
640 -641 770 0
-640 -641 -770 0
642 643 -771 0
-642 643 771 0
642 -643 771 0
-642 -643 -771 0
644 645 -772 0
-644 645 772 0
644 -645 772 0
-644 -645 -772 0
646 647 -773 0
-646 647 773 0
646 -647 773 0
-646 -647 -773 0
648 649 -774 0
-648 649 774 0
648 -649 774 0
-648 -649 -774 0
650 651 -775 0
-650 651 775 0
650 -651 775 0
-650 -651 -775 0
652 653 -776 0
-652 653 776 0
652 -653 776 0
-652 -653 -776 0
654 655 -777 0
-654 655 777 0
654 -655 777 0
-654 -655 -777 0
656 657 -778 0
-656 657 778 0
656 -657 778 0
-656 -657 -778 0
658 659 -779 0
-658 659 779 0
658 -659 779 0
-658 -659 -779 0
660 661 -780 0
-660 661 780 0
660 -661 780 0
-660 -661 -780 0
662 663 -781 0
-662 663 781 0
662 -663 781 0
-662 -663 -781 0
664 665 -782 0
-664 665 782 0
664 -665 782 0
-664 -665 -782 0
666 667 -783 0
-666 667 783 0
666 -667 783 0
-666 -667 -783 0
668 669 -784 0
-668 669 784 0
668 -669 784 0
-668 -669 -784 0
670 671 -785 0
-670 671 785 0
670 -671 785 0
-670 -671 -785 0
672 673 -786 0
-672 673 786 0
672 -673 786 0
-672 -673 -786 0
674 675 -787 0
-674 675 787 0
674 -675 787 0
-674 -675 -787 0
676 677 -788 0
-676 677 788 0
676 -677 788 0
-676 -677 -788 0
678 679 -789 0
-678 679 789 0
678 -679 789 0
-678 -679 -789 0
680 681 -790 0
-680 681 790 0
680 -681 790 0
-680 -681 -790 0
682 683 -791 0
-682 683 791 0
682 -683 791 0
-682 -683 -791 0
684 685 -792 0
-684 685 792 0
684 -685 792 0
-684 -685 -792 0
686 687 -793 0
-686 687 793 0
686 -687 793 0
-686 -687 -793 0
688 689 -794 0
-688 689 794 0
688 -689 794 0
-688 -689 -794 0
690 691 -795 0
-690 691 795 0
690 -691 795 0
-690 -691 -795 0
692 693 -796 0
-692 693 796 0
692 -693 796 0
-692 -693 -796 0
694 695 -797 0
-694 695 797 0
694 -695 797 0
-694 -695 -797 0
696 697 -798 0
-696 697 798 0
696 -697 798 0
-696 -697 -798 0
698 699 -799 0
-698 699 799 0
698 -699 799 0
-698 -699 -799 0
700 701 -800 0
-700 701 800 0
700 -701 800 0
-700 -701 -800 0
702 703 -801 0
-702 703 801 0
702 -703 801 0
-702 -703 -801 0
704 705 -802 0
-704 705 802 0
704 -705 802 0
-704 -705 -802 0
706 707 -803 0
-706 707 803 0
706 -707 803 0
-706 -707 -803 0
708 709 -804 0
-708 709 804 0
708 -709 804 0
-708 -709 -804 0
710 711 -805 0
-710 711 805 0
710 -711 805 0
-710 -711 -805 0
712 713 -806 0
-712 713 806 0
712 -713 806 0
-712 -713 -806 0
714 715 -807 0
-714 715 807 0
714 -715 807 0
-714 -715 -807 0
716 717 -808 0
-716 717 808 0
716 -717 808 0
-716 -717 -808 0
718 719 -809 0
-718 719 809 0
718 -719 809 0
-718 -719 -809 0
720 721 -810 0
-720 721 810 0
720 -721 810 0
-720 -721 -810 0
722 723 -811 0
-722 723 811 0
722 -723 811 0
-722 -723 -811 0
724 725 -812 0
-724 725 812 0
724 -725 812 0
-724 -725 -812 0
726 727 -813 0
-726 727 813 0
726 -727 813 0
-726 -727 -813 0
728 729 -814 0
-728 729 814 0
728 -729 814 0
-728 -729 -814 0
730 731 -815 0
-730 731 815 0
730 -731 815 0
-730 -731 -815 0
732 733 -816 0
-732 733 816 0
732 -733 816 0
-732 -733 -816 0
734 735 -817 0
-734 735 817 0
734 -735 817 0
-734 -735 -817 0
736 737 -818 0
-736 737 818 0
736 -737 818 0
-736 -737 -818 0
738 739 -819 0
-738 739 819 0
738 -739 819 0
-738 -739 -819 0
740 741 -820 0
-740 741 820 0
740 -741 820 0
-740 -741 -820 0
742 743 -821 0
-742 743 821 0
742 -743 821 0
-742 -743 -821 0
744 745 -822 0
-744 745 822 0
744 -745 822 0
-744 -745 -822 0
746 747 -823 0
-746 747 823 0
746 -747 823 0
-746 -747 -823 0
748 749 -824 0
-748 749 824 0
748 -749 824 0
-748 -749 -824 0
750 751 -825 0
-750 751 825 0
750 -751 825 0
-750 -751 -825 0
752 753 -826 0
-752 753 826 0
752 -753 826 0
-752 -753 -826 0
754 755 -827 0
-754 755 827 0
754 -755 827 0
-754 -755 -827 0
756 757 -828 0
-756 757 828 0
756 -757 828 0
-756 -757 -828 0
758 759 -829 0
-758 759 829 0
758 -759 829 0
-758 -759 -829 0
760 761 -830 0
-760 761 830 0
760 -761 830 0
-760 -761 -830 0
762 763 -831 0
-762 763 831 0
762 -763 831 0
-762 -763 -831 0
764 765 -832 0
-764 765 832 0
764 -765 832 0
-764 -765 -832 0
766 767 -833 0
-766 767 833 0
766 -767 833 0
-766 -767 -833 0
768 769 -834 0
-768 769 834 0
768 -769 834 0
-768 -769 -834 0
770 771 -835 0
-770 771 835 0
770 -771 835 0
-770 -771 -835 0
772 773 -836 0
-772 773 836 0
772 -773 836 0
-772 -773 -836 0
774 775 -837 0
-774 775 837 0
774 -775 837 0
-774 -775 -837 0
776 777 -838 0
-776 777 838 0
776 -777 838 0
-776 -777 -838 0
778 779 -839 0
-778 779 839 0
778 -779 839 0
-778 -779 -839 0
780 781 -840 0
-780 781 840 0
780 -781 840 0
-780 -781 -840 0
782 783 -841 0
-782 783 841 0
782 -783 841 0
-782 -783 -841 0
784 785 -842 0
-784 785 842 0
784 -785 842 0
-784 -785 -842 0
786 787 -843 0
-786 787 843 0
786 -787 843 0
-786 -787 -843 0
788 789 -844 0
-788 789 844 0
788 -789 844 0
-788 -789 -844 0
790 791 -845 0
-790 791 845 0
790 -791 845 0
-790 -791 -845 0
792 793 -846 0
-792 793 846 0
792 -793 846 0
-792 -793 -846 0
794 795 -847 0
-794 795 847 0
794 -795 847 0
-794 -795 -847 0
796 797 -848 0
-796 797 848 0
796 -797 848 0
-796 -797 -848 0
798 799 -849 0
-798 799 849 0
798 -799 849 0
-798 -799 -849 0
800 801 -850 0
-800 801 850 0
800 -801 850 0
-800 -801 -850 0
802 803 -851 0
-802 803 851 0
802 -803 851 0
-802 -803 -851 0
804 805 -852 0
-804 805 852 0
804 -805 852 0
-804 -805 -852 0
806 807 -853 0
-806 807 853 0
806 -807 853 0
-806 -807 -853 0
808 809 -854 0
-808 809 854 0
808 -809 854 0
-808 -809 -854 0
810 811 -855 0
-810 811 855 0
810 -811 855 0
-810 -811 -855 0
812 813 -856 0
-812 813 856 0
812 -813 856 0
-812 -813 -856 0
814 815 -857 0
-814 815 857 0
814 -815 857 0
-814 -815 -857 0
816 817 -858 0
-816 817 858 0
816 -817 858 0
-816 -817 -858 0
818 819 -859 0
-818 819 859 0
818 -819 859 0
-818 -819 -859 0
820 821 -860 0
-820 821 860 0
820 -821 860 0
-820 -821 -860 0
822 823 -861 0
-822 823 861 0
822 -823 861 0
-822 -823 -861 0
824 825 -862 0
-824 825 862 0
824 -825 862 0
-824 -825 -862 0
826 827 -863 0
-826 827 863 0
826 -827 863 0
-826 -827 -863 0
828 829 -864 0
-828 829 864 0
828 -829 864 0
-828 -829 -864 0
830 831 -865 0
-830 831 865 0
830 -831 865 0
-830 -831 -865 0
832 833 -866 0
-832 833 866 0
832 -833 866 0
-832 -833 -866 0
834 835 -867 0
-834 835 867 0
834 -835 867 0
-834 -835 -867 0
836 837 -868 0
-836 837 868 0
836 -837 868 0
-836 -837 -868 0
838 839 -869 0
-838 839 869 0
838 -839 869 0
-838 -839 -869 0
840 841 -870 0
-840 841 870 0
840 -841 870 0
-840 -841 -870 0
842 843 -871 0
-842 843 871 0
842 -843 871 0
-842 -843 -871 0
844 845 -872 0
-844 845 872 0
844 -845 872 0
-844 -845 -872 0
846 847 -873 0
-846 847 873 0
846 -847 873 0
-846 -847 -873 0
848 849 -874 0
-848 849 874 0
848 -849 874 0
-848 -849 -874 0
850 851 -875 0
-850 851 875 0
850 -851 875 0
-850 -851 -875 0
852 853 -876 0
-852 853 876 0
852 -853 876 0
-852 -853 -876 0
854 855 -877 0
-854 855 877 0
854 -855 877 0
-854 -855 -877 0
856 857 -878 0
-856 857 878 0
856 -857 878 0
-856 -857 -878 0
858 859 -879 0
-858 859 879 0
858 -859 879 0
-858 -859 -879 0
860 861 -880 0
-860 861 880 0
860 -861 880 0
-860 -861 -880 0
862 863 -881 0
-862 863 881 0
862 -863 881 0
-862 -863 -881 0
864 865 -882 0
-864 865 882 0
864 -865 882 0
-864 -865 -882 0
866 867 -883 0
-866 867 883 0
866 -867 883 0
-866 -867 -883 0
868 869 -884 0
-868 869 884 0
868 -869 884 0
-868 -869 -884 0
870 871 -885 0
-870 871 885 0
870 -871 885 0
-870 -871 -885 0
872 873 -886 0
-872 873 886 0
872 -873 886 0
-872 -873 -886 0
874 875 -887 0
-874 875 887 0
874 -875 887 0
-874 -875 -887 0
876 877 -888 0
-876 877 888 0
876 -877 888 0
-876 -877 -888 0
878 879 -889 0
-878 879 889 0
878 -879 889 0
-878 -879 -889 0
880 881 -890 0
-880 881 890 0
880 -881 890 0
-880 -881 -890 0
882 883 -891 0
-882 883 891 0
882 -883 891 0
-882 -883 -891 0
884 885 -892 0
-884 885 892 0
884 -885 892 0
-884 -885 -892 0
886 887 -893 0
-886 887 893 0
886 -887 893 0
-886 -887 -893 0
888 889 -894 0
-888 889 894 0
888 -889 894 0
-888 -889 -894 0
890 891 -895 0
-890 891 895 0
890 -891 895 0
-890 -891 -895 0
893 894 -896 0
-893 894 896 0
893 -894 896 0
-893 -894 -896 0
895 892 -897 0
-895 892 897 0
895 -892 897 0
-895 -892 -897 0
896 897 -449 0
-896 897 449 0
896 -897 449 0
-896 -897 -449 0
